
Gurobi 11.0.1 (win64) logging started Mon May 13 14:45:33 2024

Set parameter LogFile to value "output/solver_log5.txt"
Gurobi Optimizer version 11.0.1 build v11.0.1rc0 (win64 - Windows 11.0 (22631.2))

CPU model: 11th Gen Intel(R) Core(TM) i7-1165G7 @ 2.80GHz, instruction set [SSE2|AVX|AVX2|AVX512]
Thread count: 4 physical cores, 8 logical processors, using up to 8 threads

Optimize a model with 1185 rows, 328 columns and 21845 nonzeros
Model fingerprint: 0xfdc09d61
Variable types: 88 continuous, 240 integer (240 binary)
Coefficient statistics:
  Matrix range     [4e-01, 1e+05]
  Objective range  [1e+00, 1e+02]
  Bounds range     [1e+00, 1e+00]
  RHS range        [1e-02, 1e+05]

User MIP start produced solution with objective 54720.8 (0.00s)
User MIP start produced solution with objective 54720.8 (0.00s)
Loaded user MIP start with objective 54720.8

Presolve removed 137 rows and 140 columns
Presolve time: 0.02s
Presolved: 1048 rows, 188 columns, 20731 nonzeros
Variable types: 80 continuous, 108 integer (106 binary)

Root relaxation: cutoff, 5 iterations, 0.01 seconds (0.01 work units)

    Nodes    |    Current Node    |     Objective Bounds      |     Work
 Expl Unexpl |  Obj  Depth IntInf | Incumbent    BestBd   Gap | It/Node Time

     0     0     cutoff    0      54720.8442 54720.8442  0.00%     -    0s

Explored 1 nodes (5 simplex iterations) in 0.06 seconds (0.08 work units)
Thread count was 8 (of 8 available processors)

Solution count 2: 54720.8 54720.8 

Optimal solution found (tolerance 1.00e-04)
Best objective 5.472084419319e+04, best bound 5.472084419319e+04, gap 0.0000%
